log out/lammps.log
# ---------- Initialize Simulation --------------------- 
units 		metal 
boundary 	p p p 

# ---------- Create Atoms --------------------- 
lattice 	bcc 3.521
region		box prism 0 4 0 4 0 4 0 0 0
create_box	1 box
create_atoms	1 box
mass 		1 6.93 

# ---------- Define Interatomic Potential --------------------- 
pair_style mlip mlip.ini
pair_coeff * * 
neighbor 1.5 bin 
 
# ---------- Define Settings --------------------- 
compute eng all pe/atom 
compute eatoms all reduce sum c_eng 
 
# ---------- Run --------------------- 
velocity all create 300 123456
fix 1 all nve 
thermo 100
timestep 0.001 
thermo_style custom step pe ke temp press pxx pyy pzz c_eatoms 

run 10
 
variable natoms equal "count(all)" 
variable teng equal "c_eatoms"
variable length equal "lx"
variable ecoh equal "v_teng/v_natoms"
 
print "Total energy (eV) = ${teng};"
print "Number of atoms = ${natoms};"
print "Lattice constant (Angstoms) = ${length};"
print "Cohesive energy (eV) = ${ecoh};"
 
print "All done!" 
 