K-Points
 0
Gamma          ! generate a Gamma centered grid
1 1 1 
