MLIP output to VASP
1
           14.084             0             0
                0        14.084             0
                0             0        14.084
 128
cart
         0.019372     -0.014828     -0.018345
          1.74438       1.75323       1.77594
          3.53931      0.018059     -0.009787
           5.2793       1.76653       1.74454
          7.04861      -0.01463     -0.012164
          8.80949       1.75763       1.75777
          10.5822     -0.017097      -0.01263
          12.3116       1.76931       1.78185
        -0.004953       3.52231      0.006811
           1.7489       5.28687       1.74944
          3.52386         3.539     -0.002329
           5.2931       5.29137       1.76184
          7.02244       3.51792      0.002414
          8.79223       5.27922       1.77191
          10.5739       3.51315      0.017611
          12.3239       5.26529       1.75843
         0.007559       7.04695     -0.003046
          1.77517       8.81053       1.77897
           3.5176       7.03477      0.001515
          5.26308       8.79041       1.74293
          7.05666        7.0375     -0.004657
          8.80382       8.81914       1.75771
           10.548       7.04337     -0.011181
          12.3346       8.79452       1.76881
        -0.003664        10.553      0.001723
          1.76568       12.3291       1.74869
          3.52122       10.5583     -0.018256
          5.26525       12.3432       1.78061
          7.03448       10.5806     -0.004937
          8.80105       12.3063       1.76542
           10.555       10.5539       0.02015
          12.3326       12.3248       1.76244
         0.014282      0.002063       3.53678
          1.77952       1.75686       5.27131
          3.50404      0.005717       3.52933
          5.26978       1.77354       5.29108
          7.02295     -0.005212       3.50298
          8.79082       1.76947       5.29948
          10.5586      0.014724       3.51296
          12.3215       1.74999       5.26388
        -0.008126       3.52378       3.51544
          1.78084       5.26292       5.28295
          3.50234       3.51856       3.53062
           5.2675       5.27452        5.2858
          7.05304       3.51231       3.50803
          8.78261       5.26249       5.29733
          10.5718       3.51692       3.52085
          12.3423       5.28525       5.27097
         0.017209       7.05086       3.52302
          1.74526       8.80377       5.26489
          3.51493       7.06166       3.51297
          5.27013       8.79424        5.2649
          7.03691       7.02934        3.5209
          8.78929        8.8052       5.27783
          10.5493       7.04141       3.50579
          12.3029       8.80986       5.27716
         0.017789       10.5679       3.50267
          1.76493       12.3194       5.27868
          3.50958        10.555       3.52088
          5.26338        12.343       5.27997
          7.05666       10.5498       3.50482
          8.81477       12.3288       5.29192
          10.5736       10.5785       3.52317
          12.3157         12.31       5.27467
        -0.012008      0.015881       7.04059
          1.77781       1.74112       8.79982
          3.54028      0.014648       7.05753
           5.2867       1.74175       8.79393
          7.03574      0.013847       7.04114
          8.78373       1.76265       8.79618
          10.5477     -0.007852       7.04033
           12.333       1.77447       8.79781
         0.009534       3.50259       7.03472
          1.74279       5.29684       8.81875
          3.54059       3.52463       7.03429
          5.30091        5.3022       8.78604
          7.03087       3.54037       7.04026
          8.78786       5.28957       8.80272
          10.5462       3.53134       7.05292
          12.3139        5.2638        8.8168
         0.019639       7.05326       7.04825
          1.77183       8.82184       8.79552
          3.53952       7.03815       7.04641
          5.26708       8.80144        8.8052
          7.06056       7.05783        7.0393
          8.80252       8.78261       8.80282
          10.5759       7.02396       7.04407
           12.343       8.80787       8.82514
         0.020079       10.5602       7.03707
          1.76608       12.3216       8.80701
          3.53449       10.5479        7.0549
          5.26806       12.3204       8.81812
          7.05227       10.5786       7.03148
           8.8165       12.3219       8.78605
          10.5756       10.5576       7.06309
          12.3072       12.3108       8.79315
        -0.008108      0.018893       10.5591
          1.77548       1.77143       12.3053
           3.5095      0.010631       10.5675
          5.28887       1.75181       12.3089
          7.03595     -0.019734       10.5583
          8.81178       1.77922       12.3227
          10.5616     -0.018468       10.5758
           12.315       1.77892       12.3078
         0.007485       3.53227       10.5564
          1.75062       5.29429       12.3179
          3.51297       3.50178       10.5662
           5.2906       5.28474       12.3048
          7.04512       3.51966       10.5681
          8.81643       5.28314       12.3356
           10.571       3.52795         10.56
          12.3145       5.27141       12.3085
        -0.004013       7.02441       10.5803
           1.7493       8.81481       12.3257
          3.52223       7.02487       10.5489
          5.27758       8.81756        12.337
          7.04299       7.03679       10.5729
          8.79442       8.81064       12.3402
          10.5702       7.02296       10.5719
          12.3169       8.79766       12.3358
        -0.000213       10.5734       10.5789
          1.76476       12.3381       12.3382
          3.50088       10.5436       10.5727
          5.29492       12.3193       12.3159
          7.02389       10.5579       10.5615
          8.79067         12.32       12.3311
          10.5581       10.5478       10.5734
          12.3345       12.3199       12.3412
