MLIP output to VASP
1
            14.08             0             0
                0         14.08             0
                0             0         14.08
 128
cart
          13.8529       0.58951       0.41054
          2.05866       2.14468       1.57519
          0.09314       0.12681       3.98518
          2.27362       1.62046       5.05336
          0.16415       14.0148       7.30302
          2.38366       1.63201       8.08946
          0.47984       0.28982       10.0816
          1.67491       1.90278       12.2066
          13.6903       3.44752       13.6882
          1.41581       4.98932       1.67158
          0.16737       3.73572       3.75574
          2.19639       5.33658       5.25191
          14.0088       3.09415       6.62585
          1.74038       4.98512       8.09797
          14.0553       3.21743       9.99886
            1.845       5.15408       11.7396
           14.045       6.73257       13.9237
           1.5815       8.29731       2.08147
          0.04325       6.57643       3.86943
          1.76638       8.76159       5.17598
          13.9225       6.98204       6.87857
          2.12555       9.19042        8.7238
          0.18877       7.37945       10.0736
           1.7563       8.60671       12.4155
          13.9574       9.86341        0.1057
          1.39549       12.2621       1.85033
          13.9115       10.6112        3.9175
          1.83896       12.4155       5.00033
          0.21095       10.7433        7.0246
          1.93125       12.0427        9.2996
          13.8718       10.2854       10.0951
          1.51415       12.1922       12.8347
          3.19409        0.2135       14.0356
           5.1689       2.05697       1.54189
          2.93172       14.0322       2.79212
           5.1891       1.57543       4.71163
          3.77841       13.5637       6.22858
          5.55627       1.46954       8.78494
          3.69171       14.0706         10.91
          5.14237       1.87455       12.5956
          3.60073       3.85453       0.05772
          5.80106       5.07097       1.36314
          4.10537       3.69281       3.41262
          5.09542       5.34049       5.49114
          4.08529       3.40453       6.65235
          5.02718       5.10378        8.9451
          3.96923       3.29635       10.3782
           5.3865       5.22577       12.3367
          3.43756       6.89482       0.45048
          5.32284       8.95082       2.13867
          3.26816       6.74814       3.60505
          5.35106       8.66241       5.20905
          3.84878       7.15687       7.09595
          5.07869       8.97835       8.81935
          4.02379       7.37621       10.5206
          5.17684       8.54376       12.8381
          2.99396       10.5331       0.64314
          5.02663       12.2149       1.95924
            3.462       10.5568        3.6276
          5.88261       11.9276       4.82011
           3.6739       10.7126       6.57811
          5.10432       12.2344       8.96324
          3.79854       10.3293       11.2721
          5.08829       12.1933       12.9112
          7.01444       14.0451       0.12041
          9.41613       2.09934       2.00613
          6.91688       0.06678       3.35944
          8.35944       1.77999       5.02594
          6.49624       13.9619       6.60364
          8.14644       1.67058       9.13767
          6.86892       0.15172       11.4054
          8.75695       1.60485       12.1664
          7.54671       3.45571       13.5153
          9.11596       5.16443       1.86398
          7.05129       3.20628       3.67108
           8.2999       5.40465       5.40683
          6.70064       3.55169       7.22477
          8.96467       5.36841       8.88274
          6.94751       3.50903       10.8059
          9.13466       5.80399       11.8175
          7.32769       6.91652       0.40981
          8.84927       8.70721       2.04003
          7.00247       6.92065       3.56753
          8.74076       9.05637       5.13047
          7.17545       7.46014       7.51216
          8.95752       9.00621       9.41263
          7.07407       6.90286       10.2495
          9.20665       8.97518       12.3933
          6.93487       10.4608       0.36692
           9.1185       12.4512       1.64203
          7.46371       10.5431       3.49659
          8.60251       12.6742       4.84171
          6.63972        10.605       7.23972
          8.30501       12.0667       9.24834
          6.77737       10.1002       11.0138
           8.5718       12.2185       12.3465
          10.7278       0.05871       13.9163
          12.3262       2.36351       1.85239
          10.3867       0.02947       3.48307
          11.9117       1.44615       5.35224
          9.56116       14.0627       7.06621
          12.2087       1.52342       8.41307
          10.6394       0.08417       10.5673
          12.4657       1.77566        12.131
          10.5573       3.92031       13.6498
           12.095       5.47817       1.78242
          10.3135       3.78711       4.03601
          11.9531       5.12757       5.55652
          10.2717       3.05676       7.39561
           11.965       5.37064       8.58452
          10.4033       3.24933       10.3898
          12.5655       5.43594       11.8607
          10.6781       7.26623       13.9911
          12.4704       8.85649       1.92808
          10.6158       7.05108       3.87456
          12.3054       8.76328       5.49543
          10.2942       7.20695       7.01685
          12.4021       8.86385       8.25883
          10.7115       7.08705       9.94772
          12.2045       8.45413       11.9405
          10.9202       10.8278       14.0101
          12.5435       12.1219       2.31137
          10.6319       10.7921       3.64047
          11.9069       12.6941        5.7591
          9.97719       10.9279       7.15054
          12.5783       12.5667       8.71363
          10.9088       11.0399       10.4552
          12.7931       12.7592       12.1716
